<?xml version="1.0" encoding="UTF-8"?><osil xmlns="os.optimizationservices.org" xmlns:xsi="http://www.w3.org/2001/XMLSchema-instance" xsi:schemaLocation="os.optimizationservices.org http://www.optimizationservices.org/schemas/2.0/OSiL.xsd"><instanceHeader><name>ex8_1_1</name></instanceHeader><instanceData><variables numberOfVariables="2"><var name="x1" lb="-1" ub="2"/><var name="x2" lb="-1" ub="1"/></variables><objectives><obj maxOrMin="min" name="defObj_objvar" numberOfObjCoef="0"/></objectives><nonlinearExpressions numberOfNonlinearExpressions="1"><nl idx="-1"><sum><product><cos><variable idx="0"/></cos><sin><variable idx="1"/></sin></product><negate><divide><variable idx="0"/><sum><square><variable idx="1"/></square><number value="1"/></sum></divide></negate></sum></nl></nonlinearExpressions></instanceData></osil>